\ Model CVRP2
\ LP format - for model browsing. Use MPS format to capture full model detail.
Minimize
  132.8680039889129 xt[4,0] + 587.2729762589211 xt[4,9]
   + 48.57686317580032 xt[5,1] + 424.6812851539381 xt[8,0]
   + 582.7097768529322 xt[5,10] + 985.9965063467539 xt[8,9]
   + 895.7965174524804 xt[10,6] + 985.9965063467539 xt[9,8]
   + 145.1537931574622 xt[0,5] + 166.7094838454017 xt[6,2]
   + 259.9483321969964 xt[7,1] + 855.9078954420268 xt[7,10]
   + 158.2689134985072 xt[4,2] + 167.9496190766769 xt[3,6]
   + 207.4042412006068 xt[5,3] + 277.9110660193282 xt[8,2]
   + 579.3719116767819 xt[9,1] + 63.91054977074366 xt[9,10]
   + 280.425028533475 xt[0,7] + 158.2689134985072 xt[2,4]
   + 425.4426790532385 xt[1,8] + 297.3588767802235 xt[6,4]
   + 137.0481488674677 xt[7,3] + 277.1936283538997 xt[3,8]
   + 406.6757274536993 xt[8,4] + 741.9289859386839 xt[9,3]
   + 637.1959708409979 xt[0,9] + 628.3332667971658 xt[1,10]
   + 291.4702228633341 xt[7,5] + 162.7460835780647 xt[3,1]
   + 790.1078106410479 xt[3,10] + 291.4702228633341 xt[5,7]
   + 535.0686654140793 xt[9,5] + 147.5292600130578 xt[0,2]
   + 162.7460835780647 xt[1,3] + 145.1537931574622 xt[5,0]
   + 535.0686654140793 xt[5,9] + 814.4526706568111 xt[9,7]
   + 1027.014902842207 xt[10,8] + 48.57686317580032 xt[1,5]
   + 284.693887486188 xt[6,1] + 280.425028533475 xt[7,0]
   + 814.4526706568111 xt[7,9] + 207.4042412006068 xt[3,5]
   + 207.5612509983504 xt[5,2] + 637.1959708409979 xt[9,0]
   + 628.3332667971658 xt[10,1] + 259.9483321969964 xt[1,7]
   + 166.7094838454017 xt[2,6] + 138.2719948651919 xt[7,2]
   + 137.0481488674677 xt[3,7] + 54.01556871866188 xt[5,4]
   + 297.3588767802235 xt[4,6] + 741.995883228476 xt[9,2]
   + 328.4625295220143 xt[8,6] + 790.1078106410479 xt[10,3]
   + 103.3503664241147 xt[1,0] + 579.3719116767819 xt[1,9]
   + 277.9110660193282 xt[2,8] + 237.7005477486316 xt[7,4]
   + 328.4625295220143 xt[6,8] + 148.4002971695146 xt[3,0]
   + 741.9289859386839 xt[3,9] + 333.1260409154482 xt[5,6]
   + 406.6757274536993 xt[4,8] + 582.7097768529322 xt[10,5]
   + 162.7575754058746 xt[1,2] + 132.8680039889129 xt[0,4]
   + 162.7575754058746 xt[2,1] + 790.2519663322532 xt[2,10]
   + 895.7965174524804 xt[6,10] + 1.414171135331015 xt[3,2]
   + 36.17531473256111 xt[4,1] + 633.7438628657493 xt[4,10]
   + 425.4426790532385 xt[8,1] + 1027.014902842207 xt[8,10]
   + 855.9078954420268 xt[10,7] + 36.17531473256111 xt[1,4]
   + 204.6809343050827 xt[0,6] + 1.414171135331015 xt[2,3]
   + 167.9496190766769 xt[6,3] + 157.9434273529525 xt[3,4]
   + 157.9434273529525 xt[4,3] + 277.1936283538997 xt[8,3]
   + 691.1613363868012 xt[10,0] + 63.91054977074366 xt[10,9]
   + 284.693887486188 xt[1,6] + 424.6812851539381 xt[0,8]
   + 207.5612509983504 xt[2,5] + 333.1260409154482 xt[6,5]
   + 54.01556871866188 xt[4,5] + 460.6889796511297 xt[8,5]
   + 790.2519663322532 xt[10,2] + 587.2729762589211 xt[9,4]
   + 103.3503664241147 xt[0,1] + 691.1613363868012 xt[0,10]
   + 138.2719948651919 xt[2,7] + 266.1164632261564 xt[6,7]
   + 266.1164632261564 xt[7,6] + 237.7005477486316 xt[4,7]
   + 460.6889796511297 xt[5,8] + 171.5822977465865 xt[8,7]
   + 633.7438628657493 xt[10,4] + 841.4334586287907 xt[9,6]
   + 148.4002971695146 xt[0,3] + 147.5292600130578 xt[2,0]
   + 741.995883228476 xt[2,9] + 204.6809343050827 xt[6,0]
   + 841.4334586287907 xt[6,9] + 171.5822977465865 xt[7,8]
Subject To
 C1: xt[0,5] + xt[0,7] + xt[0,9] + xt[0,2] + xt[0,4] + xt[0,6] + xt[0,8]
   + xt[0,1] + xt[0,10] + xt[0,3] <= 8
 C2: xt[5,1] + xt[7,1] + xt[9,1] + xt[3,1] + xt[6,1] + xt[10,1] + xt[2,1]
   + xt[4,1] + xt[8,1] + xt[0,1] = 1
 C2: xt[6,2] + xt[4,2] + xt[8,2] + xt[0,2] + xt[5,2] + xt[7,2] + xt[9,2]
   + xt[1,2] + xt[3,2] + xt[10,2] = 1
 C2: xt[5,3] + xt[7,3] + xt[9,3] + xt[1,3] + xt[10,3] + xt[2,3] + xt[6,3]
   + xt[4,3] + xt[8,3] + xt[0,3] = 1
 C2: xt[2,4] + xt[6,4] + xt[8,4] + xt[5,4] + xt[7,4] + xt[0,4] + xt[1,4]
   + xt[3,4] + xt[9,4] + xt[10,4] = 1
 C2: xt[0,5] + xt[7,5] + xt[9,5] + xt[1,5] + xt[3,5] + xt[10,5] + xt[2,5]
   + xt[6,5] + xt[4,5] + xt[8,5] = 1
 C2: xt[10,6] + xt[3,6] + xt[2,6] + xt[4,6] + xt[8,6] + xt[5,6] + xt[0,6]
   + xt[1,6] + xt[7,6] + xt[9,6] = 1
 C2: xt[0,7] + xt[5,7] + xt[9,7] + xt[1,7] + xt[3,7] + xt[10,7] + xt[2,7]
   + xt[6,7] + xt[4,7] + xt[8,7] = 1
 C2: xt[9,8] + xt[1,8] + xt[3,8] + xt[10,8] + xt[2,8] + xt[6,8] + xt[4,8]
   + xt[0,8] + xt[5,8] + xt[7,8] = 1
 C2: xt[4,9] + xt[8,9] + xt[0,9] + xt[5,9] + xt[7,9] + xt[1,9] + xt[3,9]
   + xt[10,9] + xt[2,9] + xt[6,9] = 1
 C2: xt[5,10] + xt[7,10] + xt[9,10] + xt[1,10] + xt[3,10] + xt[2,10]
   + xt[6,10] + xt[4,10] + xt[8,10] + xt[0,10] = 1
 C3: xt[4,0] + xt[8,0] + xt[5,0] + xt[7,0] + xt[9,0] + xt[1,0] + xt[3,0]
   + xt[10,0] + xt[2,0] + xt[6,0] <= 8
 C4: xt[5,1] + xt[7,1] + xt[9,1] - xt[1,8] - xt[1,10] + xt[3,1] - xt[1,3]
   - xt[1,5] + xt[6,1] + xt[10,1] - xt[1,7] - xt[1,0] - xt[1,9] - xt[1,2]
   + xt[2,1] + xt[4,1] + xt[8,1] - xt[1,4] - xt[1,6] + xt[0,1] = 0
 C4: xt[6,2] + xt[4,2] + xt[8,2] - xt[2,4] + xt[0,2] + xt[5,2] - xt[2,6]
   + xt[7,2] + xt[9,2] - xt[2,8] + xt[1,2] - xt[2,1] - xt[2,10] + xt[3,2]
   - xt[2,3] - xt[2,5] + xt[10,2] - xt[2,7] - xt[2,0] - xt[2,9] = 0
 C4: - xt[3,6] + xt[5,3] + xt[7,3] - xt[3,8] + xt[9,3] - xt[3,1] - xt[3,10]
   + xt[1,3] - xt[3,5] - xt[3,7] + xt[10,3] - xt[3,0] - xt[3,9] - xt[3,2]
   + xt[2,3] + xt[6,3] - xt[3,4] + xt[4,3] + xt[8,3] + xt[0,3] = 0
 C4: - xt[4,0] - xt[4,9] - xt[4,2] + xt[2,4] + xt[6,4] + xt[8,4] + xt[5,4]
   - xt[4,6] + xt[7,4] - xt[4,8] + xt[0,4] - xt[4,1] - xt[4,10] + xt[1,4]
   + xt[3,4] - xt[4,3] - xt[4,5] + xt[9,4] - xt[4,7] + xt[10,4] = 0
 C4: - xt[5,1] - xt[5,10] + xt[0,5] - xt[5,3] + xt[7,5] - xt[5,7] + xt[9,5]
   - xt[5,0] - xt[5,9] + xt[1,5] + xt[3,5] - xt[5,2] - xt[5,4] - xt[5,6]
   + xt[10,5] + xt[2,5] + xt[6,5] + xt[4,5] + xt[8,5] - xt[5,8] = 0
 C4: xt[10,6] - xt[6,2] + xt[3,6] - xt[6,4] - xt[6,1] + xt[2,6] + xt[4,6]
   + xt[8,6] - xt[6,8] + xt[5,6] - xt[6,10] + xt[0,6] - xt[6,3] + xt[1,6]
   - xt[6,5] - xt[6,7] + xt[7,6] + xt[9,6] - xt[6,0] - xt[6,9] = 0
 C4: - xt[7,1] - xt[7,10] + xt[0,7] - xt[7,3] - xt[7,5] + xt[5,7] + xt[9,7]
   - xt[7,0] - xt[7,9] + xt[1,7] - xt[7,2] + xt[3,7] - xt[7,4] + xt[10,7]
   + xt[2,7] + xt[6,7] - xt[7,6] + xt[4,7] + xt[8,7] - xt[7,8] = 0
 C4: - xt[8,0] - xt[8,9] + xt[9,8] - xt[8,2] + xt[1,8] + xt[3,8] - xt[8,4]
   + xt[10,8] - xt[8,6] + xt[2,8] + xt[6,8] + xt[4,8] - xt[8,1] - xt[8,10]
   - xt[8,3] + xt[0,8] - xt[8,5] + xt[5,8] - xt[8,7] + xt[7,8] = 0
 C4: xt[4,9] + xt[8,9] - xt[9,8] - xt[9,1] - xt[9,10] - xt[9,3] + xt[0,9]
   - xt[9,5] + xt[5,9] - xt[9,7] + xt[7,9] - xt[9,0] - xt[9,2] + xt[1,9]
   + xt[3,9] + xt[10,9] - xt[9,4] - xt[9,6] + xt[2,9] + xt[6,9] = 0
 C4: xt[5,10] - xt[10,6] + xt[7,10] + xt[9,10] + xt[1,10] + xt[3,10]
   - xt[10,8] - xt[10,1] - xt[10,3] - xt[10,5] + xt[2,10] + xt[6,10]
   + xt[4,10] + xt[8,10] - xt[10,7] - xt[10,0] - xt[10,9] - xt[10,2]
   + xt[0,10] - xt[10,4] = 0
 C5: 64 xt[1,2] - y[1] + y[2] <= 40
 C5: 64 xt[1,3] - y[1] + y[3] <= 40
 C5: 64 xt[1,4] - y[1] + y[4] <= 40
 C5: 64 xt[1,5] - y[1] + y[5] <= 40
 C5: 64 xt[1,6] - y[1] + y[6] <= 40
 C5: 64 xt[1,7] - y[1] + y[7] <= 40
 C5: 64 xt[1,8] - y[1] + y[8] <= 40
 C5: 64 xt[1,9] - y[1] + y[9] <= 40
 C5: 64 xt[1,10] - y[1] + y[10] <= 40
 C5: 50 xt[2,1] + y[1] - y[2] <= 40
 C5: 50 xt[2,3] - y[2] + y[3] <= 40
 C5: 50 xt[2,4] - y[2] + y[4] <= 40
 C5: 50 xt[2,5] - y[2] + y[5] <= 40
 C5: 50 xt[2,6] - y[2] + y[6] <= 40
 C5: 50 xt[2,7] - y[2] + y[7] <= 40
 C5: 50 xt[2,8] - y[2] + y[8] <= 40
 C5: 50 xt[2,9] - y[2] + y[9] <= 40
 C5: 50 xt[2,10] - y[2] + y[10] <= 40
 C5: 75 xt[3,1] + y[1] - y[3] <= 40
 C5: 75 xt[3,2] + y[2] - y[3] <= 40
 C5: 75 xt[3,4] - y[3] + y[4] <= 40
 C5: 75 xt[3,5] - y[3] + y[5] <= 40
 C5: 75 xt[3,6] - y[3] + y[6] <= 40
 C5: 75 xt[3,7] - y[3] + y[7] <= 40
 C5: 75 xt[3,8] - y[3] + y[8] <= 40
 C5: 75 xt[3,9] - y[3] + y[9] <= 40
 C5: 75 xt[3,10] - y[3] + y[10] <= 40
 C5: 43 xt[4,1] + y[1] - y[4] <= 40
 C5: 43 xt[4,2] + y[2] - y[4] <= 40
 C5: 43 xt[4,3] + y[3] - y[4] <= 40
 C5: 43 xt[4,5] - y[4] + y[5] <= 40
 C5: 43 xt[4,6] - y[4] + y[6] <= 40
 C5: 43 xt[4,7] - y[4] + y[7] <= 40
 C5: 43 xt[4,8] - y[4] + y[8] <= 40
 C5: 43 xt[4,9] - y[4] + y[9] <= 40
 C5: 43 xt[4,10] - y[4] + y[10] <= 40
 C5: 48 xt[5,1] + y[1] - y[5] <= 40
 C5: 48 xt[5,2] + y[2] - y[5] <= 40
 C5: 48 xt[5,3] + y[3] - y[5] <= 40
 C5: 48 xt[5,4] + y[4] - y[5] <= 40
 C5: 48 xt[5,6] - y[5] + y[6] <= 40
 C5: 48 xt[5,7] - y[5] + y[7] <= 40
 C5: 48 xt[5,8] - y[5] + y[8] <= 40
 C5: 48 xt[5,9] - y[5] + y[9] <= 40
 C5: 48 xt[5,10] - y[5] + y[10] <= 40
 C5: 64 xt[6,1] + y[1] - y[6] <= 40
 C5: 64 xt[6,2] + y[2] - y[6] <= 40
 C5: 64 xt[6,3] + y[3] - y[6] <= 40
 C5: 64 xt[6,4] + y[4] - y[6] <= 40
 C5: 64 xt[6,5] + y[5] - y[6] <= 40
 C5: 64 xt[6,7] - y[6] + y[7] <= 40
 C5: 64 xt[6,8] - y[6] + y[8] <= 40
 C5: 64 xt[6,9] - y[6] + y[9] <= 40
 C5: 64 xt[6,10] - y[6] + y[10] <= 40
 C5: 56 xt[7,1] + y[1] - y[7] <= 40
 C5: 56 xt[7,2] + y[2] - y[7] <= 40
 C5: 56 xt[7,3] + y[3] - y[7] <= 40
 C5: 56 xt[7,4] + y[4] - y[7] <= 40
 C5: 56 xt[7,5] + y[5] - y[7] <= 40
 C5: 56 xt[7,6] + y[6] - y[7] <= 40
 C5: 56 xt[7,8] - y[7] + y[8] <= 40
 C5: 56 xt[7,9] - y[7] + y[9] <= 40
 C5: 56 xt[7,10] - y[7] + y[10] <= 40
 C5: 48 xt[8,1] + y[1] - y[8] <= 40
 C5: 48 xt[8,2] + y[2] - y[8] <= 40
 C5: 48 xt[8,3] + y[3] - y[8] <= 40
 C5: 48 xt[8,4] + y[4] - y[8] <= 40
 C5: 48 xt[8,5] + y[5] - y[8] <= 40
 C5: 48 xt[8,6] + y[6] - y[8] <= 40
 C5: 48 xt[8,7] + y[7] - y[8] <= 40
 C5: 48 xt[8,9] - y[8] + y[9] <= 40
 C5: 48 xt[8,10] - y[8] + y[10] <= 40
 C5: 41 xt[9,1] + y[1] - y[9] <= 40
 C5: 41 xt[9,2] + y[2] - y[9] <= 40
 C5: 41 xt[9,3] + y[3] - y[9] <= 40
 C5: 41 xt[9,4] + y[4] - y[9] <= 40
 C5: 41 xt[9,5] + y[5] - y[9] <= 40
 C5: 41 xt[9,6] + y[6] - y[9] <= 40
 C5: 41 xt[9,7] + y[7] - y[9] <= 40
 C5: 41 xt[9,8] + y[8] - y[9] <= 40
 C5: 41 xt[9,10] - y[9] + y[10] <= 40
 C5: 42 xt[10,1] + y[1] - y[10] <= 40
 C5: 42 xt[10,2] + y[2] - y[10] <= 40
 C5: 42 xt[10,3] + y[3] - y[10] <= 40
 C5: 42 xt[10,4] + y[4] - y[10] <= 40
 C5: 42 xt[10,5] + y[5] - y[10] <= 40
 C5: 42 xt[10,6] + y[6] - y[10] <= 40
 C5: 42 xt[10,7] + y[7] - y[10] <= 40
 C5: 42 xt[10,8] + y[8] - y[10] <= 40
 C5: 42 xt[10,9] + y[9] - y[10] <= 40
 C6: y[1] >= 24
 C7: y[1] <= 40
 C6: y[2] >= 10
 C7: y[2] <= 40
 C6: y[3] >= 35
 C7: y[3] <= 40
 C6: y[4] >= 3
 C7: y[4] <= 40
 C6: y[5] >= 8
 C7: y[5] <= 40
 C6: y[6] >= 24
 C7: y[6] <= 40
 C6: y[7] >= 16
 C7: y[7] <= 40
 C6: y[8] >= 8
 C7: y[8] <= 40
 C6: y[9] >= 1
 C7: y[9] <= 40
 C6: y[10] >= 2
 C7: y[10] <= 40
Bounds
 y[1] <= 40
 y[2] <= 40
 y[3] <= 40
 y[4] <= 40
 y[5] <= 40
 y[6] <= 40
 y[7] <= 40
 y[8] <= 40
 y[9] <= 40
 y[10] <= 40
Binaries
 xt[4,0] xt[4,9] xt[5,1] xt[8,0] xt[5,10] xt[8,9] xt[10,6] xt[9,8] xt[0,5]
 xt[6,2] xt[7,1] xt[7,10] xt[4,2] xt[3,6] xt[5,3] xt[8,2] xt[9,1] xt[9,10]
 xt[0,7] xt[2,4] xt[1,8] xt[6,4] xt[7,3] xt[3,8] xt[8,4] xt[9,3] xt[0,9]
 xt[1,10] xt[7,5] xt[3,1] xt[3,10] xt[5,7] xt[9,5] xt[0,2] xt[1,3] xt[5,0]
 xt[5,9] xt[9,7] xt[10,8] xt[1,5] xt[6,1] xt[7,0] xt[7,9] xt[3,5] xt[5,2]
 xt[9,0] xt[10,1] xt[1,7] xt[2,6] xt[7,2] xt[3,7] xt[5,4] xt[4,6] xt[9,2]
 xt[8,6] xt[10,3] xt[1,0] xt[1,9] xt[2,8] xt[7,4] xt[6,8] xt[3,0] xt[3,9]
 xt[5,6] xt[4,8] xt[10,5] xt[1,2] xt[0,4] xt[2,1] xt[2,10] xt[6,10] xt[3,2]
 xt[4,1] xt[4,10] xt[8,1] xt[8,10] xt[10,7] xt[1,4] xt[0,6] xt[2,3] xt[6,3]
 xt[3,4] xt[4,3] xt[8,3] xt[10,0] xt[10,9] xt[1,6] xt[0,8] xt[2,5] xt[6,5]
 xt[4,5] xt[8,5] xt[10,2] xt[9,4] xt[0,1] xt[0,10] xt[2,7] xt[6,7] xt[7,6]
 xt[4,7] xt[5,8] xt[8,7] xt[10,4] xt[9,6] xt[0,3] xt[2,0] xt[2,9] xt[6,0]
 xt[6,9] xt[7,8]
End
